
  22   10
  10   10   10   10   10   10   10   10   10   10

   0   0   0   0   0   0   0   0   0   0   0   1 2 
   9   0  10   0   0   0   0   0   0   0   0   2 8 3 
   6   0   0  10   0   0   0   0   0   0   0   1 4 
   7   0   0   0   0   0   0   0  10   0   0   1 5 
   4   0   0   0   0   0   0   0  10   0   0   1 6 
  10   0   0  10   0   0   0   0   0   0   0   1 7 
  10   0   0  10   0   0   0   0   0   0   0   2 21 9 
  10   0   0   0  10   0   0   0   0   0   0   2 21 9 
   4   0   0   0   0   0   0  10   0   0   0   1 10 
   9   0   0   0   0   0   0   0  10   0   0   1 11 
   4   0   0   0   0   0   0   0  10   0   0   1 12 
   1   0   0  10   0   0   0   0   0   0   0   1 13 
   6   0   0   0   0   0  10   0   0   0   0   1 14 
   9   0   0   0   0   0   0  10   0   0   0   1 15 
   9   0   0   0   0   0   0   0  10   0   0   1 16 
   1   0   0   0   0   0   0   0  10   0   0   1 17 
   3   0   0  10   0   0   0   0   0   0   0   1 18 
   4   0   0   0   0   0   0   0   0  10   0   1 19 
   1  10   0   0   0   0   0   0   0   0   0   1 20 
   1  10   0   0   0   0   0   0   0   0   0   1 22
   9  10   0   0   0   0   0   0   0   0   0   1 22
   0   0   0   0   0   0   0   0   0   0   0   0 
